% File represents an instance of a Composite Structure problem to be solved by a CP framework
% Created on 2025-03-25 14:05:13.600
T = 57;
n = 4;
m = 4;
edges = [(1, 2),
(4, 3),
(3, 1),
(4, 2)];
counts = [|6, 24, 20, 4,
|6, 22, 16, 4,
|6, 24, 21, 4,
|6, 25, 22, 4|];
